(declare-fun bvlambda_13_ ()Bool         )
(declare-fun bvlambda_14_ () (_ BitVec 3))
(declare-fun bvlambda_19_ () (_ BitVec 2))
(declare-fun bvlambda_61_ () (_ BitVec 4))
(declare-fun a152 () (Array (_ BitVec 1) (_ BitVec 5)))
(assert
(let (($e8 (_ bv28 7)))
(let (($e13 (_ bv0 6)))
(let (($e25 (_ bv0  5)))
(let (($e186 (concat bvlambda_19_ bvlambda_14_)))
(let (($e187 (store a152 false $e186)))
(let (($e188 (store $e187 bvlambda_13_ $e25 )))
(let (($e189 (select $e188 true       )))
(let (($e190 (concat $e189 $e189)))
(let (($e467 (select $e187 true        )))
(let (($e468 (concat $e8 $e467)))
(let (($e591 (concat $e13  bvlambda_61_)))
(let (($e592 (concat $e591 false       )))
(let (($e593 (concat $e592 false       )))
(let (($e601 (concat false        bvlambda_14_)))
(let (($e602 (concat $e601 bvlambda_19_)))
(let (($e613 ((_ extract 6 1) $e190)))
(let (($e614      (= $e602 $e613)        ))
(let (($e754      (bvult $e468 $e593)         ))
(let (($e756 (bvult        $e754  $e614)))
             (bvult        $e756 true         )
                                                                                                                                                                                                                                                                                                                                                                                                                                                                                                                                                                                                                                                                                                                                                                                                                                                                                                                                                                                                                                                                                                                                                                                                                                                                                                                                                                                                                                                                                                                                                                                                                                                                                                                                                                                                                                                                                                                                                                                                                                                                                                                                                                                                                                                                                                                                                                                                                                                                                       ) )                                                                                                                                           ))          ))       )))                                                                                                                          ))                                                                                                                                                                                                                                                                                    )))))                                                             )           )    )       )
